c File: instances/22_0.20_1.col
c
c Description: Random graph of size 22 vertices and P(0.2) of edges between any two vertices.
p col 22 231
e 1 2
e 1 5
e 1 8
e 1 12
e 1 14
e 1 17
e 1 19
e 2 4
e 2 11
e 2 16
e 2 18
e 3 5
e 3 6
e 3 7
e 3 22
e 4 10
e 4 11
e 4 15
e 4 21
e 5 8
e 5 14
e 5 15
e 5 18
e 5 22
e 6 12
e 6 15
e 7 9
e 8 16
e 8 17
e 9 21
e 10 19
e 10 21
e 10 22
e 11 13
e 11 15
e 11 18
e 11 21
e 13 20
e 14 16
e 14 17
e 14 21
e 14 22
e 15 20
e 15 22
e 16 18
e 18 21
e 19 22